1687161
103,56,48,17,80,15,23,3,94,81,51,84,59,2,46,90,24,109,64,22,100,53,58,97,89,11,91,31,72,57,75,86,27,69,70,14,39,8,12,87,7,60,42,55,33,50,65,73,108,106,18,88,36,40,68,78,71,47,49,41,38,26,37,9,77,66,10,104,54,102,105,62,19,99,76,96,13,28,93,21,92,74,79,67,4,20,25,16,107,29,52,34,45,82,5,35,98,1,101,83,63,44,85,43,61,32,95,6,30